# Tell Atomify where initial camera position should be
#/camera position 35 90 40
#/camera viewcenter 18 18 18
# Information about atoms for coloring and bonds
#/atom 1 silicon
#/atom 2 oxygen
#/bond 1 2 2.6
#package omp 8
#suffix omp

# Information about atoms for coloring and bonds
#/atom 1 silicon
#/atom 2 oxygen
#/bond 1 2 2.6
#package omp 8
#suffix omp

units metal
boundary p p p

atom_style atomic

read_data betany.data

replicate 10 7 6

pair_style vashishta
pair_coeff * * SiO2.vashishta Si O
mass 1 28.08
mass 2 15.9994

velocity all create 300.0 277387 mom yes

thermo_style custom step temp ke pe etotal press spcpu cpuremain
change_box all x scale 1.1 boundary m p p
fix xwalls all wall/reflect xlo EDGE xhi EDGE

dump dumper all atom 1000 dump.blokk

restart 1000 blokk1.restart blokk2.restart

thermo 100
fix nvt all nvt temp 300 300 1.0
timestep 0.002
run 5000