
units metal
dimension 3
boundary p p p
atom_style atomic

read_data betacristobalite.data
pair_style vashishta
pair_coeff	* * SiO2.vashishta Si O

mass 1 28.08
mass 2 15.9994

replicate 10 5 5

timestep 0.002

velocity all create 1000 277385 mom yes loop geom
fix nvt all nvt temp 300 300 1.0

run 1000