# Tell Atomify where initial camera position should be
#/camera position 35 90 40
#/camera viewcenter 18 18 18
# Information about atoms for coloring and bonds
#/atom 1 silicon
#/atom 2 oxygen
#/bond 1 2 2.6
#package omp 8
#suffix omp

# Information about atoms for coloring and bonds
#/atom 1 silicon
#/atom 2 oxygen
#/bond 1 2 2.6
#package omp 8
#suffix omp

units metal
boundary p p p

atom_style atomic

read_data waterbox.data

pair_style usc
pair_coeff * * ../SiO2H2O.vashishta Si O H
pair_modify coord 2 1 2.0 0.3
pair_modify coord 2 3 1.4 0.3

mass 1 28.08
mass 2 15.9994
mass 3 1.00794

velocity all create 300.0 277387 mom yes
change_box all x scale 1.02 boundary m p p
fix xwalls all wall/reflect xlo EDGE xhi EDGE

fix nvt all nvt temp 300 300 1.0
timestep 0.0005
dump dump1 all atom 10 dump.test
thermo 1
thermo_style custom step temp ke pe etotal press spcpu cpuremain 
minimize 1.0e-4 1.0e-6 100 1000

run 100
